NAME : pr20.tsp.354046.tour
COMMENT : Length = 354046
COMMENT : Found by LKH [Keld Helsgaun] Wed Oct 18 11:42:58 2017
TYPE : TOUR
DIMENSION : 20
TOUR_SECTION
1
7
14
18
3
6
5
4
10
15
12
2
9
17
13
19
16
8
20
11
-1
EOF
